;; sequence(s): A22278
;; terms: 0 10 41 93 166 260 375 511 668 846 1045 1265 1506 1768 2051 2355 2680 3026 3393 3781
;; small program: loop2((2 * x) + y, 1 - x, (x + x) + x, x, x)
;; fast program: (2 * ((1 + (2 + 2)) * (x * x))) + (((x * x) - x) div 2)
(set-logic UFNIA)
(define-fun divf ((a Int) (b Int)) Int (ite (< 0 b) (div a b) (div (- a) (- b))))
(declare-fun f0 (Int Int) Int)
(declare-fun g0 (Int) Int)
(declare-fun h0 (Int) Int)
(declare-fun i0 (Int) Int)
(declare-fun j0 (Int) Int)
(declare-fun u0 (Int Int Int) Int)
(declare-fun v0 (Int Int Int) Int)
(declare-fun w0 (Int) Int)
(declare-fun small (Int) Int)
(declare-fun fast (Int) Int)
(assert (forall ((x Int) (y Int)) (= (f0 x y) (+ (* 2 x) y))))
(assert (forall ((x Int)) (= (g0 x) (- 1 x))))
(assert (forall ((x Int)) (= (h0 x) (+ (+ x x) x))))
(assert (forall ((x Int)) (= (i0 x) x)))
(assert (forall ((x Int)) (= (j0 x) x)))
(assert (forall ((x Int) (y Int) (z Int)) (= (u0 x y z) (ite (<= x 0) y (f0 (u0 (- x 1) y z) (v0 (- x 1) y z))))))
(assert (forall ((x Int) (y Int) (z Int)) (= (v0 x y z) (ite (<= x 0) z (g0 (u0 (- x 1) y z))))))
(assert (forall ((x Int)) (= (w0 x) (u0 (h0 x) (i0 x) (j0 x)))))
(assert (forall ((x Int)) (= (small x) (w0 x))))
(assert (forall ((x Int)) (= (fast x) (+ (* 2 (* (+ 1 (+ 2 2)) (* x x))) (divf (- (* x x) x) 2)))))
(assert (exists ((c Int)) (and (>= c 0) (not (= (small c) (fast c))))))
(check-sat)
